# Solution for model TSP0
# Objective value = 6.7911628118274518e+02
C0(2) 0
C1(2) 0
C2(2) 0
C3(2) 0
C4(2) 0
C5(2) 0
C6(2) 0
C7(2) 0
C8(2) 0
C9(2) 0
C10(2) 0
C11(2) 0
C12(2) 0
C13(2) 0
C14(2) 0
C15(2) 0
C16(2) 0
C17(2) 0
C18(2) 0
C19(2) 0
C20(2) 0
C21(2) 0
C22(2) 0
C23(2) 0
C24(2) 0
C25(2) 0
C26(2) 3.3333333333333337e-01
C27(2) 0
C28(2) 0
C29(2) 0
C30(2) 0
C31(2) 0
C32(2) 0
C33(2) 0
C34(2) 0
C35(2) 0
C36(2) 0
C37(2) 0
C38(2) 6.6666666666666663e-01
C39(2) 0
C40(2) 1
C41(2) 0
C42(8) 0
C43(2) 0
C44(2) 0
C45(2) 0
C46(2) 0
C47(2) 0
C48(2) 0
C49(2) 0
C50(8) 0
C51(2) 0
C52(2) 0
C53(2) 0
C54(2) 0
C55(7) 1
C56(8) 0
C57(2) 0
C58(8) 0
C59(2) 0
C60(2) 0
C61(2) 0
C62(8) 1
C63(2) 0
C64(2) 0
C65(2) 0
C66(2) 0
C67(2) 0
C68(2) 0
C69(2) 0
C70(2) 0
C71(8) 0
C72(2) 0
C73(2) 0
C74(2) 0
C75(4) 0
C76(2) 0
C77(2) 0
C78(2) 0
C79(2) 0
C80(3) 0
C81(2) 0
C82(56) 0
C83(64) 0
C84(21) 0
C85(23) 0
C86(57) 0
C87(64) 0
C88(47) 0
C89(2) 0
C90(47) 0
C91(64) 0
C92(47) 0
C93(59) 0
C94(2) 0
C95(2) 0
C96(64) 0
C97(2) 0
C98(33) 0
C99(64) 1
C100(63) 1
C101(2) 0
C102(64) 0
C103(62) 0
C104(60) 0
C105(28) 0
C106(64) 0
C107(64) 0
C108(33) 0
C109(30) 0
C110(2) 0
C111(63) 0
C112(47) 0
C113(25) 0
C114(2) 0
C115(64) 0
C116(31) 0
C117(20) 0
C118(64) 0
C119(2) 0
C120(2) 0
C121(2) 0
C122(2) 0
C123(2) 0
C124(2) 0
C125(2) 0
C126(2) 0
C127(12) 1
C128(2) 0
C129(2) 0
C130(2) 0
C131(2) 0
C132(7) 0
C133(12) 6.6666666666666674e-01
C134(2) 0
C135(12) 0
C136(2) 0
C137(2) 0
C138(2) 0
C139(10) 0
C140(2) 0
C141(2) 0
C142(2) 0
C143(2) 0
C144(2) 0
C145(2) 0
C146(2) 0
C147(2) 0
C148(12) 3.3333333333333326e-01
C149(2) 0
C150(2) 0
C151(2) 0
C152(4) 0
C153(2) 0
C154(2) 0
C155(2) 0
C156(2) 0
C157(3) 0
C158(56) 0
C159(21) 0
C160(23) 0
C161(56) 1
C162(56) 0
C163(46) 0
C164(2) 0
C165(46) 0
C166(56) 0
C167(46) 0
C168(56) 0
C169(2) 0
C170(2) 0
C171(56) 0
C172(2) 0
C173(33) 0
C174(56) 0
C175(56) 0
C176(2) 0
C177(56) 0
C178(56) 0
C179(56) 0
C180(28) 0
C181(56) 0
C182(56) 0
C183(33) 1
C184(30) 0
C185(2) 0
C186(56) 0
C187(46) 0
C188(25) 0
C189(2) 0
C190(56) 0
C191(31) 0
C192(20) 0
C193(56) 0
C194(2) 0
C195(21) 0
C196(23) 0
C197(57) 0
C198(75) 0
C199(55) 1
C200(2) 0
C201(55) 0
C202(75) 0
C203(55) 0
C204(59) 0
C205(2) 0
C206(2) 0
C207(75) 0
C208(2) 0
C209(33) 0
C210(65) 0
C211(63) 0
C212(2) 0
C213(75) 0
C214(62) 0
C215(60) 0
C216(28) 0
C217(75) 0
C218(75) 0
C219(33) 0
C220(30) 0
C221(2) 0
C222(63) 0
C223(55) 0
C224(25) 0
C225(2) 0
C226(75) 0
C227(31) 0
C228(20) 0
C229(74) 1
C230(2) 0
C231(21) 6.6666666666666674e-01
C232(21) 0
C233(21) 0
C234(19) 0
C235(2) 0
C236(19) 0
C237(21) 0
C238(19) 0
C239(21) 0
C240(2) 0
C241(2) 3.3333333333333326e-01
C242(21) 0
C243(2) 0
C244(21) 0
C245(21) 0
C246(21) 0
C247(2) 0
C248(21) 0
C249(21) 0
C250(21) 0
C251(21) 0
C252(21) 0
C253(21) 0
C254(21) 0
C255(21) 0
C256(2) 0
C257(21) 0
C258(19) 0
C259(21) 0
C260(2) 0
C261(21) 0
C262(21) 0
C263(20) 1
C264(21) 0
C265(2) 0
C266(23) 0
C267(23) 0
C268(20) 0
C269(2) 0
C270(20) 0
C271(23) 0
C272(20) 0
C273(23) 0
C274(2) 0
C275(2) 0
C276(23) 0
C277(2) 0
C278(23) 0
C279(23) 0
C280(23) 0
C281(2) 0
C282(23) 6.6666666666666674e-01
C283(23) 0
C284(23) 0
C285(23) 0
C286(23) 0
C287(23) 0
C288(23) 0
C289(23) 0
C290(2) 0
C291(23) 0
C292(20) 0
C293(23) 6.6666666666666663e-01
C294(2) 0
C295(23) 0
C296(23) 0
C297(20) 0
C298(23) 0
C299(2) 0
C300(57) 0
C301(46) 0
C302(2) 0
C303(46) 0
C304(57) 0
C305(46) 0
C306(57) 1
C307(2) 0
C308(2) 0
C309(57) 0
C310(2) 0
C311(33) 0
C312(57) 0
C313(57) 0
C314(2) 0
C315(57) 0
C316(57) 0
C317(57) 0
C318(28) 0
C319(57) 0
C320(57) 0
C321(33) 0
C322(30) 0
C323(2) 0
C324(57) 0
C325(46) 0
C326(25) 0
C327(2) 0
C328(57) 0
C329(31) 0
C330(20) 0
C331(57) 0
C332(2) 0
C333(55) 0
C334(2) 0
C335(55) 1
C336(82) 0
C337(55) 0
C338(59) 0
C339(2) 0
C340(2) 0
C341(82) 0
C342(2) 0
C343(33) 0
C344(65) 0
C345(63) 0
C346(2) 0
C347(82) 0
C348(62) 0
C349(60) 0
C350(28) 0
C351(82) 0
C352(82) 1
C353(33) 0
C354(30) 0
C355(2) 0
C356(63) 0
C357(55) 0
C358(25) 0
C359(2) 0
C360(82) 0
C361(31) 0
C362(20) 0
C363(74) 0
C364(2) 0
C365(2) 0
C366(59) 0
C367(55) 0
C368(59) 1
C369(47) 0
C370(2) 0
C371(2) 0
C372(55) 0
C373(2) 0
C374(24) 0
C375(47) 0
C376(47) 0
C377(2) 0
C378(55) 0
C379(47) 0
C380(47) 0
C381(23) 0
C382(55) 0
C383(55) 0
C384(24) 0
C385(23) 0
C386(2) 0
C387(47) 0
C388(59) 0
C389(21) 0
C390(2) 0
C391(55) 0
C392(23) 0
C393(19) 0
C394(55) 0
C395(2) 0
C396(2) 0
C397(2) 0
C398(2) 0
C399(2) 0
C400(7) 0
C401(12) 0
C402(2) 0
C403(12) 0
C404(2) 0
C405(2) 0
C406(2) 0
C407(10) 3.3333333333333326e-01
C408(2) 0
C409(2) 0
C410(2) 0
C411(2) 0
C412(2) 0
C413(2) 0
C414(2) 0
C415(2) 0
C416(12) 0
C417(2) 0
C418(2) 0
C419(2) 0
C420(4) 0
C421(2) 0
C422(2) 0
C423(2) 0
C424(2) 0
C425(3) 6.6666666666666674e-01
C426(55) 0
C427(59) 0
C428(47) 0
C429(2) 0
C430(2) 0
C431(55) 0
C432(2) 0
C433(24) 0
C434(47) 0
C435(47) 0
C436(2) 0
C437(55) 0
C438(47) 0
C439(47) 0
C440(23) 0
C441(55) 0
C442(55) 0
C443(24) 0
C444(23) 0
C445(2) 0
C446(47) 0
C447(59) 1
C448(21) 0
C449(2) 0
C450(55) 0
C451(23) 0
C452(19) 0
C453(55) 0
C454(2) 0
C455(55) 0
C456(59) 0
C457(2) 0
C458(2) 0
C459(82) 1
C460(2) 0
C461(33) 0
C462(65) 0
C463(63) 0
C464(2) 0
C465(82) 0
C466(62) 0
C467(60) 0
C468(28) 0
C469(82) 1
C470(82) 0
C471(33) 0
C472(30) 0
C473(2) 0
C474(63) 0
C475(55) 0
C476(25) 0
C477(2) 0
C478(82) 0
C479(31) 0
C480(20) 0
C481(74) 0
C482(2) 0
C483(47) 0
C484(2) 0
C485(2) 0
C486(55) 0
C487(2) 0
C488(24) 0
C489(47) 0
C490(47) 0
C491(2) 0
C492(55) 0
C493(47) 0
C494(47) 0
C495(23) 0
C496(55) 0
C497(55) 0
C498(24) 0
C499(23) 0
C500(2) 0
C501(47) 0
C502(59) 1
C503(21) 0
C504(2) 0
C505(55) 0
C506(23) 0
C507(19) 0
C508(55) 0
C509(2) 0
C510(2) 0
C511(2) 0
C512(59) 0
C513(2) 0
C514(33) 0
C515(59) 0
C516(59) 0
C517(2) 0
C518(59) 0
C519(59) 0
C520(59) 1
C521(28) 0
C522(59) 0
C523(59) 0
C524(33) 0
C525(30) 0
C526(2) 0
C527(59) 0
C528(47) 0
C529(25) 0
C530(2) 0
C531(59) 0
C532(31) 0
C533(20) 0
C534(59) 0
C535(2) 0
C536(7) 0
C537(2) 0
C538(7) 0
C539(2) 0
C540(2) 0
C541(2) 0
C542(7) 0
C543(2) 0
C544(2) 0
C545(2) 0
C546(2) 0
C547(2) 0
C548(2) 0
C549(2) 0
C550(2) 0
C551(7) 0
C552(2) 0
C553(2) 0
C554(2) 0
C555(4) 1
C556(2) 0
C557(2) 0
C558(2) 0
C559(2) 0
C560(3) 0
C561(2) 0
C562(12) 1
C563(2) 0
C564(2) 0
C565(2) 0
C566(10) 0
C567(2) 0
C568(2) 0
C569(2) 0
C570(2) 0
C571(2) 0
C572(2) 0
C573(2) 0
C574(2) 0
C575(12) 0
C576(2) 0
C577(2) 0
C578(2) 0
C579(4) 0
C580(2) 0
C581(2) 0
C582(2) 0
C583(2) 0
C584(3) 0
C585(2) 0
C586(33) 0
C587(65) 0
C588(63) 0
C589(2) 0
C590(82) 1
C591(62) 0
C592(60) 0
C593(28) 0
C594(82) 0
C595(82) 0
C596(33) 0
C597(30) 0
C598(2) 0
C599(63) 0
C600(55) 0
C601(25) 0
C602(2) 0
C603(82) 0
C604(31) 0
C605(20) 0
C606(74) 0
C607(2) 0
C608(2) 0
C609(2) 0
C610(2) 0
C611(10) 0
C612(2) 0
C613(2) 0
C614(2) 0
C615(2) 0
C616(2) 0
C617(2) 0
C618(2) 0
C619(2) 0
C620(12) 1
C621(2) 0
C622(2) 0
C623(2) 0
C624(4) 0
C625(2) 0
C626(2) 0
C627(2) 0
C628(2) 0
C629(3) 0
C630(33) 0
C631(33) 0
C632(2) 0
C633(33) 0
C634(33) 0
C635(33) 0
C636(28) 0
C637(33) 0
C638(33) 0
C639(33) 1
C640(30) 0
C641(2) 0
C642(33) 0
C643(24) 0
C644(25) 0
C645(2) 6.6666666666666674e-01
C646(33) 0
C647(31) 3.3333333333333326e-01
C648(20) 0
C649(33) 0
C650(2) 0
C651(63) 0
C652(2) 0
C653(65) 0
C654(62) 0
C655(60) 0
C656(28) 0
C657(65) 0
C658(65) 0
C659(33) 0
C660(30) 0
C661(2) 0
C662(63) 0
C663(47) 0
C664(25) 0
C665(2) 0
C666(65) 0
C667(31) 0
C668(20) 0
C669(65) 1
C670(2) 0
C671(2) 0
C672(63) 0
C673(62) 0
C674(60) 0
C675(28) 0
C676(63) 0
C677(63) 0
C678(33) 0
C679(30) 0
C680(2) 0
C681(63) 1
C682(47) 0
C683(25) 0
C684(2) 0
C685(63) 0
C686(31) 0
C687(20) 0
C688(63) 0
C689(2) 0
C690(2) 0
C691(2) 0
C692(2) 0
C693(2) 0
C694(2) 0
C695(2) 0
C696(2) 0
C697(2) 0
C698(10) 6.6666666666666674e-01
C699(2) 0
C700(2) 0
C701(2) 0
C702(4) 0
C703(2) 0
C704(2) 0
C705(2) 0
C706(2) 0
C707(3) 0
C708(62) 0
C709(60) 0
C710(28) 0
C711(82) 0
C712(82) 0
C713(33) 0
C714(30) 0
C715(2) 0
C716(63) 0
C717(55) 0
C718(25) 3.3333333333333326e-01
C719(2) 0
C720(82) 0
C721(31) 0
C722(20) 0
C723(74) 0
C724(2) 0
C725(60) 1
C726(28) 0
C727(62) 0
C728(62) 0
C729(33) 0
C730(30) 0
C731(2) 0
C732(62) 1
C733(47) 0
C734(25) 0
C735(2) 0
C736(62) 0
C737(31) 0
C738(20) 0
C739(62) 0
C740(2) 0
C741(28) 0
C742(60) 0
C743(60) 0
C744(33) 0
C745(30) 0
C746(2) 0
C747(60) 0
C748(47) 0
C749(25) 0
C750(2) 0
C751(60) 0
C752(31) 0
C753(20) 0
C754(60) 0
C755(2) 0
C756(28) 0
C757(28) 0
C758(28) 0
C759(35) 3.3333333333333331e-01
C760(2) 0
C761(28) 0
C762(23) 0
C763(29) 3.3333333333333331e-01
C764(2) 0
C765(28) 0
C766(35) 6.6666666666666674e-01
C767(20) 3.3333333333333337e-01
C768(28) 0
C769(2) 0
C770(82) 0
C771(33) 0
C772(30) 0
C773(2) 0
C774(63) 0
C775(55) 0
C776(25) 0
C777(2) 0
C778(82) 1
C779(31) 0
C780(20) 0
C781(74) 0
C782(2) 0
C783(33) 0
C784(30) 0
C785(2) 0
C786(63) 0
C787(55) 0
C788(25) 0
C789(2) 0
C790(82) 1
C791(31) 0
C792(20) 0
C793(74) 0
C794(2) 0
C795(30) 0
C796(2) 0
C797(33) 0
C798(24) 0
C799(25) 0
C800(2) 0
C801(33) 0
C802(31) 0
C803(20) 0
C804(33) 0
C805(2) 0
C806(2) 0
C807(30) 0
C808(23) 0
C809(29) 6.6666666666666674e-01
C810(2) 0
C811(30) 0
C812(37) 1
C813(20) 0
C814(30) 0
C815(2) 0
C816(2) 0
C817(2) 0
C818(2) 0
C819(4) 0
C820(2) 0
C821(2) 0
C822(2) 0
C823(2) 0
C824(3) 0
C825(47) 0
C826(25) 0
C827(2) 0
C828(63) 0
C829(31) 0
C830(20) 0
C831(63) 0
C832(2) 0
C833(21) 0
C834(2) 0
C835(55) 0
C836(23) 0
C837(19) 0
C838(55) 0
C839(2) 0
C840(2) 0
C841(25) 0
C842(29) 0
C843(20) 0
C844(25) 0
C845(2) 0
C846(2) 0
C847(2) 0
C848(2) 0
C849(2) 0
C850(3) 3.3333333333333326e-01
C851(31) 0
C852(20) 0
C853(74) 0
C854(2) 0
C855(20) 0
C856(31) 0
C857(2) 0
C858(20) 0
C859(2) 0
C860(2) 0
